(set-logic QF_SLIA)
(declare-fun var0 () String)
(assert (str.in_re var0 (re.++ ((_ re.loop 14 157) (re.++ (re.union (str.to_re "\\f") (re.union (str.to_re "#u$") (re.union (str.to_re "ES") (str.to_re "wIh")))) (re.++ (re.union (str.to_re "#+") (re.union (str.to_re "CJ") (re.union (str.to_re "Z%a") (str.to_re "c2o")))) (re.++ (re.union (str.to_re ".") (re.union (str.to_re "qz") (re.union (str.to_re "r") (str.to_re "~")))) (re.union (str.to_re "d") (re.union (str.to_re "'9p") (re.union (str.to_re "+.~") (str.to_re "V,")))))))) (re.++ ((_ re.loop 18 810) (re.++ (re.union (str.to_re "[Xs") (re.union (str.to_re "9") (re.union (str.to_re "I#") (str.to_re "{")))) (re.++ (re.union (str.to_re "bX") (re.union (str.to_re "T;~") (re.union (str.to_re "d}") (str.to_re "'@")))) (re.++ (re.union (str.to_re ">R") (re.union (str.to_re "D\u0022u") (re.union (str.to_re ":") (str.to_re ":]a")))) (re.union (str.to_re "F") (re.union (str.to_re "=1c") (re.union (str.to_re "|") (str.to_re "U-")))))))) (re.++ ((_ re.loop 20 951) (re.++ (re.union (str.to_re "U[~") (re.union (str.to_re ",S]") (re.union (str.to_re "eT)") (str.to_re "?{")))) (re.++ (re.union (str.to_re "EQ") (re.union (str.to_re "z") (re.union (str.to_re "v") (str.to_re "tI")))) (re.++ (re.union (str.to_re "6") (re.union (str.to_re ";4") (re.union (str.to_re "M") (str.to_re ":!C")))) (re.union (str.to_re "<") (re.union (str.to_re "=k,") (re.union (str.to_re "j") (str.to_re "d")))))))) ((_ re.loop 0 187) (re.++ (re.union (str.to_re "yh") (re.union (str.to_re "`c") (re.union (str.to_re "Z") (str.to_re "]Xk")))) (re.++ (re.union (str.to_re "+b") (re.union (str.to_re "w") (re.union (str.to_re ")/") (str.to_re "-2A")))) (re.++ (re.union (str.to_re "<Q") (re.union (str.to_re "N\u0022") (re.union (str.to_re "F") (str.to_re "!8e")))) (re.union (str.to_re "5`N") (re.union (str.to_re "2") (re.union (str.to_re ":Q\u0022") (str.to_re "e")))))))))))))
(assert (not (str.in_re var0 (re.++ ((_ re.loop 6 454) (re.++ (re.union (str.to_re "P)g") (re.union (str.to_re "(") (re.union (str.to_re "D") (str.to_re "&")))) (re.++ (re.union (str.to_re "]q") (re.union (str.to_re "u71") (re.union (str.to_re "T") (str.to_re "Q(G")))) (re.++ (re.union (str.to_re "o,-") (re.union (str.to_re ":ed") (re.union (str.to_re ",O") (str.to_re "fi")))) (re.union (str.to_re "n") (re.union (str.to_re "`w]") (re.union (str.to_re "+") (str.to_re "0<b")))))))) (re.++ ((_ re.loop 3 114) (re.++ (re.union (str.to_re "cw6") (re.union (str.to_re "J") (re.union (str.to_re "T") (str.to_re "Lkz")))) (re.++ (re.union (str.to_re "';F") (re.union (str.to_re "k") (re.union (str.to_re ";.") (str.to_re "ec")))) (re.++ (re.union (str.to_re "`|,") (re.union (str.to_re "{") (re.union (str.to_re "67,") (str.to_re "x8")))) (re.union (str.to_re "P") (re.union (str.to_re "ds#") (re.union (str.to_re "9") (str.to_re "eK")))))))) (re.++ ((_ re.loop 13 533) (re.++ (re.union (str.to_re "Y") (re.union (str.to_re "eM") (re.union (str.to_re "7") (str.to_re "{")))) (re.++ (re.union (str.to_re "Z'Y") (re.union (str.to_re "x") (re.union (str.to_re "Jc") (str.to_re "d%")))) (re.++ (re.union (str.to_re "`x0") (re.union (str.to_re "+&V") (re.union (str.to_re "?") (str.to_re "HV")))) (re.union (str.to_re "S") (re.union (str.to_re "w") (re.union (str.to_re "l:") (str.to_re ">Z")))))))) ((_ re.loop 4 849) (re.++ (re.union (str.to_re "R+") (re.union (str.to_re "K") (re.union (str.to_re "hb") (str.to_re "&/")))) (re.++ (re.union (str.to_re "*") (re.union (str.to_re "rDS") (re.union (str.to_re "A~") (str.to_re ":o#")))) (re.++ (re.union (str.to_re "<") (re.union (str.to_re "$R'") (re.union (str.to_re "a*`") (str.to_re "BE")))) (re.union (str.to_re "D;") (re.union (str.to_re ";~:") (re.union (str.to_re "W=&") (str.to_re "@e"))))))))))))))
(assert (not (str.in_re var0 (re.++ (re.* re.allchar) (re.++ (re.union (str.to_re "<") (re.union (str.to_re ">") (re.union (str.to_re "'") (re.union (str.to_re "\u0022") (str.to_re "&"))))) (re.* re.allchar))))))
(assert (<= 50 (str.len var0)))
(check-sat)
(get-model)
